Instance: E076-14s.dat
Class:  4
   75 --- number of customers (no depot)
   17 --- number of vehicles
  195 --- number of items
Capacity - height - width of vehicles
   100     40     20
Node - x - y - demand
    0    40.0    40.0     0.0
    1    22.0    22.0    18.0
    2    36.0    26.0    26.0
    3    21.0    45.0    11.0
    4    45.0    35.0    30.0
    5    55.0    20.0    21.0
    6    33.0    34.0    19.0
    7    50.0    50.0    15.0
    8    55.0    45.0    16.0
    9    26.0    59.0    29.0
   10    40.0    66.0    26.0
   11    55.0    65.0    37.0
   12    35.0    51.0    16.0
   13    62.0    35.0    12.0
   14    62.0    57.0    31.0
   15    62.0    24.0     8.0
   16    21.0    36.0    19.0
   17    33.0    44.0    20.0
   18     9.0    56.0    13.0
   19    62.0    48.0    15.0
   20    66.0    14.0    22.0
   21    44.0    13.0    28.0
   22    26.0    13.0    12.0
   23    11.0    28.0     6.0
   24     7.0    43.0    27.0
   25    17.0    64.0    14.0
   26    41.0    46.0    18.0
   27    55.0    34.0    17.0
   28    35.0    16.0    29.0
   29    52.0    26.0    13.0
   30    43.0    26.0    22.0
   31    31.0    76.0    25.0
   32    22.0    53.0    28.0
   33    26.0    29.0    27.0
   34    50.0    40.0    19.0
   35    55.0    50.0    10.0
   36    54.0    10.0    12.0
   37    60.0    15.0    14.0
   38    47.0    66.0    24.0
   39    30.0    60.0    16.0
   40    30.0    50.0    33.0
   41    12.0    17.0    15.0
   42    15.0    14.0    11.0
   43    16.0    19.0    18.0
   44    21.0    48.0    17.0
   45    50.0    30.0    21.0
   46    51.0    42.0    27.0
   47    50.0    15.0    19.0
   48    48.0    21.0    20.0
   49    12.0    38.0     5.0
   50    15.0    56.0    22.0
   51    29.0    39.0    12.0
   52    54.0    38.0    19.0
   53    55.0    57.0    22.0
   54    67.0    41.0    16.0
   55    10.0    70.0     7.0
   56     6.0    25.0    26.0
   57    65.0    27.0    14.0
   58    40.0    60.0    21.0
   59    70.0    64.0    24.0
   60    64.0     4.0    13.0
   61    36.0     6.0    15.0
   62    30.0    20.0    18.0
   63    20.0    30.0    11.0
   64    15.0     5.0    28.0
   65    50.0    70.0     9.0
   66    57.0    72.0    37.0
   67    45.0    42.0    30.0
   68    38.0    33.0    10.0
   69    50.0     4.0     8.0
   70    66.0     8.0    11.0
   71    59.0     5.0     3.0
   72    35.0    60.0     1.0
   73    27.0    24.0     6.0
   74    40.0    20.0    10.0
   75    40.0    37.0    20.0
Node - number of items - h - w for each item
    0   0
    1   2    6   14    6    9
    2   3    4   12    7   10   18    3
    3   1   17    4
    4   2   10    7   16    2
    5   1   13    3
    6   3    7    8    7    5   21    4
    7   3    7   14   24    4   25    2
    8   3    6    5   18    3   26    2
    9   2    7    6    7    4
   10   2    5   12    7    8
   11   3    4   14    8    9    5    5
   12   3   11    5   23    3   19    3
   13   1   19    3
   14   4   10    6    7    5    6    4   10    3
   15   4   13    7   12    4   29    3   14    3
   16   1   29    4
   17   4    9    7    6    6    9    5   17    2
   18   4    7   12    6   12   28    3   15    2
   19   2    8   10    5    7
   20   4    7   10    8    8   11    6   10    5
   21   4    5   13    7    7    6    4   12    2
   22   1    7   12
   23   2    6    4   22    3
   24   1   14    6
   25   4   13    6    8    6   21    3    4    3
   26   3    7   10   15    3   11    3
   27   3   12    6   19    4   12    4
   28   3    4    9   10    6    8    3
   29   4    7    6   26    3   12    3   32    2
   30   1    5   13
   31   1   27    3
   32   4    5    6    7    5   15    4   14    3
   33   2    6   14    6    9
   34   2    5    9   22    3
   35   3   15    4   25    3   20    3
   36   1    8   12
   37   4   14    8    6    5   15    2   13    2
   38   3    6    8    7    5   24    3
   39   1   28    3
   40   4    6    5    4    5   25    4   10    2
   41   2    6   12    7    5
   42   4   10    5   19    4   20    3   28    2
   43   4    7    6   24    3   23    3   26    2
   44   3    6    4   22    3    6    3
   45   1    5    7
   46   3    4   14   16    7    7    7
   47   2    5    7   11    5
   48   4    5   10   14    7   26    3   19    3
   49   2   12    5   20    3
   50   4    8   13    6   12    7   11   16    3
   51   2   16    6   25    2
   52   1   25    3
   53   3    5   11   10    5   12    3
   54   2    5    8   19    3
   55   1   11    3
   56   2    9    6    8    5
   57   2    5   11   14    3
   58   3    6   11    8    6   11    3
   59   4    5   14    5   14    6    7   31    3
   60   1    7    8
   61   4    7   14   15    7    9    5   15    2
   62   4    6   13    6    7    4    6   26    3
   63   2    6   13   12    3
   64   3    6   14   10    8    8    7
   65   1    5   14
   66   4    9    7   17    4    5    3   15    2
   67   4    7   13    8    8    7    7   14    3
   68   3    5    9    4    8   10    6
   69   3   12    6    8    6   12    3
   70   1    6    8
   71   4    6   13    7    7    7    6    4    5
   72   1   28    3
   73   3    8   11    6   11   18    3
   74   2    6   11   31    2
   75   3   14    7    8    7    7    6
